86 1711
2 3 6 7 8 10 12 16 17 20 21 22 23 24 25 26 27 28 29 30 33 34 37 39 40 41 43 45 46 47 48 49 52 54 55 57 58 59 60 64 68 70 75 76 77
2 8 10 12 15 18 21 22 25 31 36 39 42 43 45 46 50 54 56 57 61 62 63 67 68 69 71 72 73 74 76 77 79 82 83 84 85
0 1 4 6 7 8 9 13 14 15 20 21 24 28 29 33 35 36 40 43 44 45 46 47 48 50 51 52 54 58 59 60 63 64 67 68 69 72 73 75 76 78 84
0 4 7 9 11 14 16 17 20 21 25 26 29 30 35 44 46 47 49 50 52 58 59 61 62 63 66
2 3 7 12 17 18 20 21 27 28 31 33 34 38 39 40 43 44 45 46 48 49 51 52 53 55 59 61 64 65 72 75 77 83 84
6 9 11 14 16 18 19 20 21 22 23 24 25 27 29 33 34 36 37 38 40 41 43 44 46 49 50 51 52 53 54 55 58 59 60 64 66 67 72 78 79 81 82 83
0 2 5 7 10 16 18 20 21 22 23 24 29 30 32 35 37 39 40 45 46 47 48 52 55 57 60 62 65 74 75 76 77 78 81 82 83 85
0 2 3 4 6 8 9 12 13 14 15 22 23 25 30 33 37 42 45 46 50 51 53 56 58 59 60 62 64 65 67 69 70 72 74 78 79 81 83
0 1 2 7 9 10 11 13 15 16 17 20 22 23 24 25 26 27 29 30 31 32 38 40 42 44 47 50 51 56 57 58 59 61 62 65 66 68 69 73 74 77 78 79 81 82 85
2 3 5 7 8 13 14 18 20 21 22 24 32 33 36 41 42 46 52 55 56 57 59 61 62 63 64 66 68 69 73 75 82 84
0 1 6 8 13 14 16 18 20 23 24 25 26 28 29 30 31 34 35 37 38 44 47 49 50 51 54 55 61 64 65 66 68 72 73 75 79 84
3 5 8 14 16 21 23 24 25 27 28 29 30 31 33 37 38 39 40 44 46 47 49 51 53 54 58 59 64 66 70 73 74 75 79 80 84
0 1 4 7 16 17 18 26 27 28 31 32 36 37 38 41 43 45 46 52 56 59 60 64 65 66 67 68 72 75 78 81 82
2 7 8 9 10 16 17 19 20 22 23 26 35 37 39 43 45 47 48 51 52 55 56 58 59 62 63 65 67 69 70 71 72 73 74 78 79 82
2 3 5 7 9 10 11 15 18 20 24 26 27 29 30 31 32 33 36 37 38 40 42 45 48 50 54 55 56 57 59 61 62 64 65 66 68 71 77 79 80 81 82 83
1 2 7 8 14 17 19 20 21 23 24 27 30 32 33 35 37 39 42 45 46 50 55 59 60 63 65 68 70 71 74 77 78 81 82 84 85
0 3 5 6 8 10 11 12 13 18 20 21 23 26 28 30 34 37 42 44 45 46 47 48 49 51 53 54 57 61 64 66 67 70 75 76 83 84
0 3 4 8 12 13 15 18 19 20 21 22 24 25 26 27 28 29 30 32 33 34 37 39 40 42 43 48 49 53 55 62 64 66 72 73 74 75 78 79 80 82 84
1 4 5 6 9 10 12 14 16 17 19 20 21 24 28 30 32 33 38 39 42 43 44 45 47 48 53 54 56 57 61 65 66 68 69 70 71 72 75 77 79 80 82
5 13 15 17 18 20 21 23 24 29 30 32 33 34 36 37 38 40 43 44 47 50 58 61 64 66 68 70 71 72 73 74 79 80 82 83
0 2 3 4 5 6 8 9 10 13 14 15 16 17 18 19 21 22 25 27 28 30 31 33 34 35 36 38 40 45 48 49 50 52 60 62 63 64 66 68 69 70 71 74 77 78 79 80 82 83
0 1 2 3 4 5 6 9 11 15 16 17 18 19 20 23 24 25 26 30 32 33 35 37 39 41 42 43 44 46 49 52 53 54 55 56 65 68 70 72 73 76 80 81 83
0 1 5 6 7 8 9 13 17 20 23 27 29 32 34 35 36 37 42 44 45 46 47 48 52 55 60 61 62 63 66 67 68 71 72 73 74 75 76 77 80 82 83 84 85
0 5 6 7 8 10 11 13 15 16 19 21 22 25 26 28 29 31 33 34 35 41 43 47 50 52 53 54 56 57 58 60 61 62 65 68 69 76 77 78 79 80 81 82 84
0 2 5 6 8 9 10 11 14 15 17 18 19 21 26 27 28 29 31 46 48 50 52 53 54 55 56 58 61 63 69 71 75 76 77
0 1 3 5 7 8 10 11 17 20 21 23 27 28 29 31 35 36 44 47 48 53 55 57 58 64 65 66 67 68 69 71 75 77 78 79 82 83 84 85
0 3 8 10 12 13 14 16 17 21 23 24 27 28 29 30 32 33 39 40 44 46 47 48 50 51 53 54 55 57 58 66 67 68 71 74 75 76 77 78 81 82 83 84 85
0 4 5 8 11 12 14 15 17 20 22 24 25 26 29 30 32 33 34 36 40 42 44 48 49 50 51 53 54 55 58 59 60 63 65 67 70 71 72 73 75 80 84 85
0 2 4 10 11 12 16 17 18 20 23 24 25 26 29 31 34 35 37 39 42 44 45 48 52 53 54 55 56 57 59 60 61 63 64 67 71 74 76 77 80 81 82
0 2 3 5 6 8 10 11 14 17 19 22 23 24 25 26 27 28 35 36 38 40 41 47 51 53 57 58 60 63 67 68 69 70 72 74 75 76 81 83 84
0 3 6 7 8 10 11 14 15 16 17 18 19 20 21 26 27 31 33 35 37 38 39 42 44 47 48 49 52 53 54 55 60 61 62 66 67 68 69 73 75 76 77 79 83 85
1 4 8 10 11 12 14 20 23 24 25 28 30 35 37 39 41 42 48 49 50 51 53 55 57 59 63 67 69 70 71 72 73 74 81 82 83 84 85
6 8 9 12 14 15 17 18 19 21 22 26 27 33 34 37 38 47 48 49 54 56 58 60 61 62 69 71 73 75 80 81 83 85
0 2 4 5 7 9 11 14 15 17 18 19 20 21 23 26 27 30 32 34 35 36 37 39 40 41 43 44 49 51 58 59 60 65 67 68 69 70 71 72 74 75 76 77 83 85
0 4 5 10 16 17 19 20 22 23 27 28 32 33 36 37 38 41 47 51 52 55 59 60 61 63 65 66 68 71 73 74 76 78 79 80 81 83 85
2 3 6 10 13 15 20 21 22 23 25 28 29 30 31 33 40 42 50 56 57 61 63 64 66 69 70 72 73 74 75 77 84
1 2 5 9 12 14 19 20 22 25 27 29 33 34 37 38 39 42 43 45 46 48 52 53 56 57 60 61 62 63 69 70 72 73 74 75 76 78 81 82 83 84 85
0 5 6 7 10 11 12 13 14 15 16 17 19 21 22 28 30 31 32 33 34 36 38 44 46 47 48 50 51 53 54 55 60 62 65 66 69 71 73 74 75 76 83 84
4 5 8 10 11 12 14 18 19 20 29 30 32 34 36 37 39 42 43 44 49 53 54 57 58 59 60 61 63 65 66 67 68 69 71 72 74 77 80 81
0 1 4 6 11 13 15 17 18 21 26 28 30 31 33 36 38 41 43 48 51 53 54 58 66 68 69 71 72 74 75 78 81 84 85
0 2 4 5 6 8 11 14 17 19 20 26 27 29 33 35 43 44 47 49 51 55 58 63 65 66 68 70 71 72 73 74 76 77 78 80 81 85
0 5 9 12 21 23 29 31 33 34 39 44 45 46 47 50 52 53 57 58 59 60 62 63 64 67 69 72 74 76 77 78 79 80 82 84
1 7 8 9 14 15 16 17 18 21 22 27 28 30 31 35 36 38 44 46 49 50 52 55 57 58 60 63 64 66 67 68 72 76 79 80 82
0 1 2 4 5 12 13 17 18 19 21 23 33 36 38 39 40 45 46 47 50 51 52 53 58 59 64 66 67 68 69 70 73 75 80 82 83 85
2 3 4 5 8 10 11 16 18 19 21 22 25 26 27 28 30 33 37 38 40 41 42 46 49 57 59 60 61 63 64 65 67 69 71 72 76 77 83 85
0 1 2 4 6 7 12 13 14 15 16 18 20 22 28 36 41 43 47 49 51 52 56 58 60 63 67 70 71 73 74 76 78 79 84 85
0 1 2 3 4 5 6 7 9 11 12 15 16 21 22 24 26 36 37 41 42 43 44 48 49 51 53 54 56 57 58 59 61 64 65 66 69 70 72 73 74 75 78 81 85
0 2 3 6 8 10 11 13 16 18 19 22 23 25 26 29 30 32 34 37 40 41 43 45 53 57 58 60 63 64 65 68 71 74 78 79 81 82 83 84
0 2 4 6 13 14 16 17 18 20 22 24 25 26 27 28 30 31 32 36 37 39 46 49 51 53 54 55 56 57 58 60 61 67 68 70 71 73 79 80 82 83 85
0 3 4 5 10 11 16 17 20 21 27 30 31 32 33 38 40 42 44 45 46 48 51 54 56 58 59 62 64 66 69 70 74 75 80 82 83 84
1 2 3 5 7 8 10 14 15 19 20 23 24 26 27 31 35 37 41 42 43 52 53 56 58 59 60 61 62 65 67 68 70 71 72 76 77 78 79 80 82 84
2 4 5 7 8 10 11 13 16 26 27 29 31 33 34 37 39 40 43 45 46 48 49 52 55 58 59 61 62 64 68 69 70 72 73 74 75 77 78 81 82 85
0 2 3 4 5 6 9 12 13 20 21 22 23 24 28 30 34 36 41 42 43 45 50 51 54 55 57 58 59 61 64 67 69 70 71 72 75 76 78 79 81 82 83 85
4 5 7 11 16 17 18 21 23 24 25 26 27 28 29 30 31 36 37 38 39 41 43 46 47 48 50 56 57 58 59 60 61 62 67 69 73 76 79 80 82 83
0 1 2 5 10 11 14 16 18 21 23 24 26 27 28 30 32 37 38 39 46 48 49 52 60 61 62 63 66 68 69 70 71 73 74 77 78 85
0 4 5 6 9 10 13 14 15 17 21 22 24 25 26 27 28 30 31 34 37 40 42 48 51 52 56 60 65 66 67 69 70 71 72 74 77 83 84 85
1 7 8 9 12 13 14 18 21 23 24 28 32 35 36 45 46 48 49 50 53 55 57 58 63 66 75 76 79 80 81 82 84
0 1 6 8 9 14 16 18 23 25 26 28 29 31 35 36 38 41 42 44 46 47 48 52 53 56 58 62 67 68 69 73 77 78 79 81 82 83 85
0 2 3 5 7 8 11 13 19 23 24 25 26 27 29 32 33 38 39 40 41 42 43 45 46 47 48 49 50 51 52 53 56 57 59 61 63 68 75 76 78 79 81 85
0 2 3 4 5 7 8 9 11 12 13 14 15 27 28 31 33 34 38 41 43 44 46 49 50 51 52 53 58 61 69 70 72 79 80 82 83 84
0 2 5 6 7 12 15 20 22 23 27 28 29 30 32 33 34 36 37 38 41 42 44 45 47 48 50 53 54 55 61 63 65 67 68 69 71 72 78 79
1 3 4 8 9 10 14 16 18 19 22 23 24 28 30 32 34 35 36 38 44 46 48 50 51 52 53 54 58 59 60 62 64 66 68 74 75 76 84
1 3 6 7 8 9 13 14 17 20 22 23 30 32 36 37 41 49 50 51 53 54 57 61 63 64 65 67 68 69 70 71 72 74 79 82 83 84 85
1 2 3 9 13 15 20 22 24 27 28 29 31 34 35 36 38 40 41 42 44 45 47 54 56 58 60 62 65 67 68 70 71 72 73 74 76 78 83
0 2 4 5 7 9 10 11 12 14 16 17 19 20 25 28 35 41 42 43 44 46 47 49 51 52 61 62 67 70 71 72 74 77 79 81 85
4 6 7 8 10 12 13 14 15 18 21 23 25 27 33 34 37 38 40 44 46 47 50 55 60 62 63 66 68 69 70 74 76 79 81 84 85
3 5 8 9 10 11 12 14 16 17 18 19 20 22 25 26 30 34 35 37 38 39 40 42 43 46 49 54 55 56 61 65 68 70 75 78 79 80 82
1 2 5 7 12 13 16 22 25 26 27 28 29 30 31 33 38 41 42 43 44 45 48 50 52 53 55 57 60 62 63 64 69 70 71 72 78 79 82 83 84 85
0 1 2 8 9 10 12 14 15 18 19 20 21 22 23 25 26 29 30 33 34 38 39 40 42 43 47 48 50 51 54 57 58 60 61 62 63 65 66 69 70 72 73 74 75 77 78 82 83
1 2 7 8 9 13 18 20 23 24 25 29 30 31 32 33 35 36 37 38 39 41 43 44 46 49 51 52 53 54 55 57 59 60 62 65 67 68 72 75 78 82
0 7 11 13 15 16 18 19 20 21 27 29 31 33 35 36 40 43 45 46 48 49 50 51 52 54 55 59 62 63 64 65 66 67 68 71 73 77 79 84
1 13 14 15 18 19 20 22 24 25 26 27 28 31 32 33 34 37 38 39 40 44 45 47 48 50 52 54 55 60 62 63 64 67 70 75 78 81
1 2 4 5 7 10 12 13 17 18 19 21 22 27 29 31 33 35 36 38 39 40 41 42 44 46 50 51 52 55 59 60 62 63 64 67 68 69 73 74 76 77 78 82 83
1 2 8 9 10 11 13 17 19 21 22 27 30 31 32 34 35 36 37 40 43 45 46 48 51 53 54 57 63 68 70 72 74 76 79 80 83 84
1 6 7 8 11 13 15 17 19 20 22 26 28 29 31 33 34 35 36 37 38 39 40 41 45 46 47 49 51 54 55 61 62 63 64 65 68 72 73 76 77 79 81 82
0 2 4 6 9 10 11 12 16 17 18 22 24 25 26 27 29 30 32 33 35 36 37 39 43 46 49 51 52 56 58 61 66 68 69 71 82 85
0 1 2 6 16 21 22 23 24 26 28 29 30 33 34 36 37 40 41 42 44 45 50 52 53 56 58 61 63 65 72 73 74 77 79 83 84 85
0 1 4 6 8 14 15 18 20 22 23 24 25 26 28 30 33 35 38 40 41 44 50 51 54 55 57 64 68 70 72 74 76 82 85
2 5 6 7 8 12 13 15 17 20 23 25 26 34 36 39 40 41 45 46 47 50 51 52 54 57 58 60 63 66 67 68 69 71 72 79 81 82 85
1 5 7 8 10 11 13 14 17 18 19 20 23 25 30 34 41 42 45 47 48 50 52 53 56 57 58 59 60 62 64 65 66 67 70 73 74 76 78 85
11 14 17 18 19 20 21 22 23 27 28 32 34 38 40 41 42 43 48 49 50 53 56 59 66 73 81 83
5 6 7 8 12 14 15 21 23 26 28 29 31 32 34 36 38 39 40 46 47 51 52 56 57 58 64 65 71 74 78 80 82 85
1 5 6 8 9 12 13 14 15 17 18 19 20 22 23 25 26 28 31 36 41 42 43 47 48 49 50 51 52 53 56 57 59 62 66 67 68 69 72 74 75 77 78 81 84
1 4 5 6 7 14 16 19 20 21 22 25 26 29 30 31 32 33 34 36 37 43 44 47 48 49 52 53 55 57 59 62 63 67 68 72 73 76 80 85
1 2 4 9 10 11 15 16 17 22 23 25 26 27 29 31 35 36 37 39 41 45 47 49 50 55 56 59 61 62 65 67 70 73 76 82 85
1 6 8 15 22 25 26 27 30 31 32 33 34 36 39 40 43 44 45 46 48 51 52 54 55 57 58 62 64 65 67 75 76 77 78 79 81 83 84
